DATASET = "thpack7";
INSTANCE = "083";

WIDTH = 233;
HEIGHT = 220;
LENGTH = 587;

NO_OF_SHAPES = 20;
size = [|
  83,71,46 |
  76,63,54 |
  91,56,40 |
  61,42,34 |
  84,67,47 |
  95,79,57 |
  90,80,23 |
  69,43,28 |
  72,69,48 |
  83,64,58 |
  99,94,24 |
  96,69,53 |
  71,70,36 |
  57,52,45 |
  99,71,43 |
  72,71,27 |
  59,37,22 |
  86,56,44 |
  80,55,41 |
  78,58,30 |
|];

verticality = [|
  1,1,1 |
  1,1,1 |
  0,1,1 |
  1,1,1 |
  1,1,1 |
  1,1,1 |
  0,0,1 |
  0,1,1 |
  1,1,1 |
  1,1,1 |
  0,0,1 |
  1,1,1 |
  1,1,1 |
  1,1,1 |
  0,1,1 |
  0,0,1 |
  0,1,1 |
  1,1,1 |
  1,1,1 |
  0,1,1 |
|];

box_count = [
  13,
  4,
  8,
  7,
  6,
  8,
  4,
  7,
  7,
  4,
  8,
  7,
  7,
  5,
  8,
  9,
  6,
  10,
  6,
  5,
];
